c *********************************
c * Circuit generated by BenCGen
c *
c * RippleCarryAdderSubtractor_10_10_10_OutSunT
c *
c * Ports with 1 gate(s): 2
c * Ports with 2 gate(s): 62
c * Total gates: 64
c *********************************
p cnf 84 221
1 33 0
-1 -33 0
1 -32 0
33 -32 0
-1 -33 32 0
32 34 0
-32 -34 0
11 32 -35 0
-11 32 35 0
11 -32 35 0
-11 -32 -35 0
12 32 -36 0
-12 32 36 0
12 -32 36 0
-12 -32 -36 0
13 32 -37 0
-13 32 37 0
13 -32 37 0
-13 -32 -37 0
14 32 -38 0
-14 32 38 0
14 -32 38 0
-14 -32 -38 0
15 32 -39 0
-15 32 39 0
15 -32 39 0
-15 -32 -39 0
16 32 -40 0
-16 32 40 0
16 -32 40 0
-16 -32 -40 0
17 32 -41 0
-17 32 41 0
17 -32 41 0
-17 -32 -41 0
18 32 -42 0
-18 32 42 0
18 -32 42 0
-18 -32 -42 0
19 32 -43 0
-19 32 43 0
19 -32 43 0
-19 -32 -43 0
20 32 -44 0
-20 32 44 0
20 -32 44 0
-20 -32 -44 0
1 35 -46 0
-1 35 46 0
1 -35 46 0
-1 -35 -46 0
46 32 -21 0
-46 32 21 0
46 -32 21 0
-46 -32 -21 0
32 -47 0
46 -47 0
-32 -46 47 0
35 -48 0
1 -48 0
-35 -1 48 0
-47 45 0
-48 45 0
47 48 -45 0
2 36 -50 0
-2 36 50 0
2 -36 50 0
-2 -36 -50 0
50 45 -22 0
-50 45 22 0
50 -45 22 0
-50 -45 -22 0
45 -51 0
50 -51 0
-45 -50 51 0
36 -52 0
2 -52 0
-36 -2 52 0
-51 49 0
-52 49 0
51 52 -49 0
3 37 -54 0
-3 37 54 0
3 -37 54 0
-3 -37 -54 0
54 49 -23 0
-54 49 23 0
54 -49 23 0
-54 -49 -23 0
49 -55 0
54 -55 0
-49 -54 55 0
37 -56 0
3 -56 0
-37 -3 56 0
-55 53 0
-56 53 0
55 56 -53 0
4 38 -58 0
-4 38 58 0
4 -38 58 0
-4 -38 -58 0
58 53 -24 0
-58 53 24 0
58 -53 24 0
-58 -53 -24 0
53 -59 0
58 -59 0
-53 -58 59 0
38 -60 0
4 -60 0
-38 -4 60 0
-59 57 0
-60 57 0
59 60 -57 0
5 39 -62 0
-5 39 62 0
5 -39 62 0
-5 -39 -62 0
62 57 -25 0
-62 57 25 0
62 -57 25 0
-62 -57 -25 0
57 -63 0
62 -63 0
-57 -62 63 0
39 -64 0
5 -64 0
-39 -5 64 0
-63 61 0
-64 61 0
63 64 -61 0
6 40 -66 0
-6 40 66 0
6 -40 66 0
-6 -40 -66 0
66 61 -26 0
-66 61 26 0
66 -61 26 0
-66 -61 -26 0
61 -67 0
66 -67 0
-61 -66 67 0
40 -68 0
6 -68 0
-40 -6 68 0
-67 65 0
-68 65 0
67 68 -65 0
7 41 -70 0
-7 41 70 0
7 -41 70 0
-7 -41 -70 0
70 65 -27 0
-70 65 27 0
70 -65 27 0
-70 -65 -27 0
65 -71 0
70 -71 0
-65 -70 71 0
41 -72 0
7 -72 0
-41 -7 72 0
-71 69 0
-72 69 0
71 72 -69 0
8 42 -74 0
-8 42 74 0
8 -42 74 0
-8 -42 -74 0
74 69 -28 0
-74 69 28 0
74 -69 28 0
-74 -69 -28 0
69 -75 0
74 -75 0
-69 -74 75 0
42 -76 0
8 -76 0
-42 -8 76 0
-75 73 0
-76 73 0
75 76 -73 0
9 43 -78 0
-9 43 78 0
9 -43 78 0
-9 -43 -78 0
78 73 -29 0
-78 73 29 0
78 -73 29 0
-78 -73 -29 0
73 -79 0
78 -79 0
-73 -78 79 0
43 -80 0
9 -80 0
-43 -9 80 0
-79 77 0
-80 77 0
79 80 -77 0
10 44 -82 0
-10 44 82 0
10 -44 82 0
-10 -44 -82 0
82 77 -30 0
-82 77 30 0
82 -77 30 0
-82 -77 -30 0
77 -83 0
82 -83 0
-77 -82 83 0
44 -84 0
10 -84 0
-44 -10 84 0
-83 81 0
-84 81 0
83 84 -81 0
81 32 -31 0
-81 32 31 0
81 -32 31 0
-81 -32 -31 0
